c colouring generated by benchmark framework
p edge 500 112437
v 1 34
v 2 112
v 3 85
v 4 116
v 5 113
v 6 68
v 7 148
v 8 122
v 9 36
v 10 5
v 11 40
v 12 31
v 13 8
v 14 66
v 15 175
v 16 68
v 17 160
v 18 96
v 19 44
v 20 20
v 21 159
v 22 20
v 23 31
v 24 37
v 25 44
v 26 21
v 27 156
v 28 92
v 29 13
v 30 176
v 31 186
v 32 36
v 33 51
v 34 76
v 35 181
v 36 137
v 37 134
v 38 74
v 39 62
v 40 128
v 41 82
v 42 54
v 43 23
v 44 98
v 45 146
v 46 98
v 47 131
v 48 167
v 49 43
v 50 180
v 51 178
v 52 177
v 53 163
v 54 39
v 55 1
v 56 90
v 57 148
v 58 168
v 59 82
v 60 80
v 61 59
v 62 63
v 63 31
v 64 131
v 65 66
v 66 6
v 67 150
v 68 50
v 69 50
v 70 28
v 71 33
v 72 42
v 73 102
v 74 30
v 75 90
v 76 10
v 77 170
v 78 39
v 79 46
v 80 105
v 81 100
v 82 1
v 83 108
v 84 86
v 85 143
v 86 88
v 87 5
v 88 71
v 89 81
v 90 75
v 91 73
v 92 63
v 93 141
v 94 95
v 95 23
v 96 49
v 97 39
v 98 23
v 99 113
v 100 120
v 101 116
v 102 145
v 103 7
v 104 80
v 105 69
v 106 22
v 107 133
v 108 18
v 109 56
v 110 74
v 111 71
v 112 115
v 113 70
v 114 18
v 115 158
v 116 16
v 117 83
v 118 69
v 119 112
v 120 12
v 121 24
v 122 76
v 123 22
v 124 116
v 125 175
v 126 107
v 127 15
v 128 29
v 129 60
v 130 93
v 131 128
v 132 55
v 133 16
v 134 78
v 135 11
v 136 115
v 137 60
v 138 155
v 139 93
v 140 81
v 141 51
v 142 104
v 143 179
v 144 126
v 145 91
v 146 105
v 147 185
v 148 78
v 149 148
v 150 95
v 151 129
v 152 62
v 153 28
v 154 105
v 155 0
v 156 50
v 157 43
v 158 110
v 159 152
v 160 118
v 161 183
v 162 57
v 163 28
v 164 103
v 165 52
v 166 78
v 167 9
v 168 38
v 169 22
v 170 98
v 171 59
v 172 15
v 173 99
v 174 86
v 175 47
v 176 182
v 177 68
v 178 88
v 179 54
v 180 56
v 181 67
v 182 79
v 183 87
v 184 3
v 185 67
v 186 13
v 187 112
v 188 161
v 189 26
v 190 95
v 191 26
v 192 97
v 193 114
v 194 151
v 195 157
v 196 64
v 197 154
v 198 159
v 199 12
v 200 164
v 201 4
v 202 127
v 203 154
v 204 43
v 205 151
v 206 96
v 207 20
v 208 132
v 209 29
v 210 25
v 211 91
v 212 119
v 213 143
v 214 166
v 215 27
v 216 152
v 217 97
v 218 57
v 219 21
v 220 35
v 221 118
v 222 135
v 223 53
v 224 84
v 225 27
v 226 34
v 227 101
v 228 140
v 229 157
v 230 71
v 231 24
v 232 75
v 233 48
v 234 7
v 235 27
v 236 174
v 237 13
v 238 16
v 239 32
v 240 21
v 241 54
v 242 93
v 243 126
v 244 158
v 245 144
v 246 53
v 247 187
v 248 159
v 249 107
v 250 91
v 251 65
v 252 84
v 253 111
v 254 135
v 255 130
v 256 7
v 257 69
v 258 129
v 259 53
v 260 103
v 261 184
v 262 0
v 263 117
v 264 38
v 265 10
v 266 168
v 267 8
v 268 188
v 269 2
v 270 47
v 271 156
v 272 4
v 273 47
v 274 2
v 275 73
v 276 100
v 277 104
v 278 128
v 279 149
v 280 117
v 281 123
v 282 107
v 283 77
v 284 9
v 285 83
v 286 119
v 287 176
v 288 41
v 289 30
v 290 17
v 291 106
v 292 135
v 293 62
v 294 64
v 295 138
v 296 141
v 297 93
v 298 111
v 299 153
v 300 88
v 301 24
v 302 162
v 303 133
v 304 29
v 305 99
v 306 121
v 307 59
v 308 81
v 309 89
v 310 66
v 311 27
v 312 144
v 313 52
v 314 11
v 315 15
v 316 190
v 317 83
v 318 57
v 319 35
v 320 33
v 321 1
v 322 123
v 323 63
v 324 163
v 325 151
v 326 103
v 327 129
v 328 115
v 329 137
v 330 77
v 331 127
v 332 56
v 333 127
v 334 67
v 335 121
v 336 24
v 337 34
v 338 38
v 339 84
v 340 90
v 341 65
v 342 40
v 343 14
v 344 19
v 345 172
v 346 45
v 347 8
v 348 33
v 349 85
v 350 7
v 351 37
v 352 160
v 353 165
v 354 42
v 355 10
v 356 65
v 357 171
v 358 153
v 359 13
v 360 179
v 361 109
v 362 106
v 363 4
v 364 132
v 365 165
v 366 146
v 367 178
v 368 169
v 369 101
v 370 61
v 371 122
v 372 87
v 373 30
v 374 138
v 375 26
v 376 108
v 377 45
v 378 139
v 379 0
v 380 124
v 381 79
v 382 134
v 383 92
v 384 18
v 385 5
v 386 140
v 387 45
v 388 44
v 389 51
v 390 125
v 391 106
v 392 137
v 393 2
v 394 38
v 395 142
v 396 60
v 397 35
v 398 6
v 399 133
v 400 112
v 401 156
v 402 14
v 403 41
v 404 123
v 405 58
v 406 72
v 407 94
v 408 34
v 409 132
v 410 155
v 411 109
v 412 99
v 413 36
v 414 94
v 415 136
v 416 14
v 417 49
v 418 61
v 419 131
v 420 11
v 421 130
v 422 48
v 423 76
v 424 173
v 425 136
v 426 120
v 427 70
v 428 72
v 429 32
v 430 133
v 431 102
v 432 113
v 433 25
v 434 32
v 435 108
v 436 17
v 437 48
v 438 126
v 439 111
v 440 75
v 441 189
v 442 150
v 443 3
v 444 87
v 445 121
v 446 72
v 447 145
v 448 70
v 449 94
v 450 19
v 451 189
v 452 85
v 453 61
v 454 52
v 455 101
v 456 77
v 457 51
v 458 37
v 459 40
v 460 114
v 461 89
v 462 79
v 463 64
v 464 80
v 465 92
v 466 73
v 467 174
v 468 114
v 469 134
v 470 55
v 471 139
v 472 49
v 473 147
v 474 142
v 475 142
v 476 147
v 477 139
v 478 125
v 479 142
v 480 58
v 481 19
v 482 46
v 483 124
v 484 46
v 485 33
v 486 21
v 487 9
v 488 166
v 489 180
v 490 74
v 491 17
v 492 172
v 493 42
v 494 36
v 495 96
v 496 190
v 497 100
v 498 110
v 499 6
v 500 55
